SCIP Status        : problem creation / modification
Total Time         :       0.03
  reading          :       0.03
Original Problem   :
  Problem name     : main4.zpl
  Variables        : 3020 (3020 binary, 0 integer, 0 implicit integer, 0 continuous)
  Constraints      : 0 initial, 3170 maximal
  Objective        : minimize, 3020 non-zeros (abs.min = 0.00153, abs.max = 5700)
